130
200
160	3
159	4
158	4
157	3
156	4
155	3
154	3
153	4
151	2
150	1
149	3
148	3
147	5
146	3
145	2
144	3
143	3
142	8
141	6
140	3
139	2
138	1
137	3
136	4
135	3
134	2
133	3
132	3
131	4
129	3
128	4
127	2
126	1
125	3
124	3
123	1
122	1
121	2
120	5
119	2
118	1
117	2
116	3
115	1
114	1
113	2
112	5
111	3
110	6
109	3
108	3
107	1
106	4
104	2
103	6
102	2
101	2
100	1
99	4
98	3
97	2
96	4
94	1
93	3
92	5
91	2
90	2
89	2
88	6
87	5
86	4
85	3
84	4
83	2
82	2
81	3
80	6
79	6
78	3
76	4
75	4
74	7
73	3
72	4
71	2
69	2
68	3
66	4
64	1
63	4
62	3
60	2
59	2
58	3
57	1
56	2
55	4
54	4
53	4
52	1
51	5
50	6
49	4
47	2
46	3
45	2
43	3
42	7
41	5
40	4
39	2
38	6
37	2
36	4
35	2
34	2
33	4
32	2
31	2
30	3
29	4
28	1
27	3
26	4
25	2
24	2
23	2
22	2
21	1
20	3
